c description: Random 3-CNF over 20 variables and 85 clauses
c generator: CNFgen (0.9.2)
c copyright: (C) 2012-2022 Massimo Lauria <massimo.lauria@uniroma1.it>
c url: https://massimolauria.net/cnfgen
c command line: cnfgen --output CNF_4.28/20_bit_85_889.cnf randkcnf 3 20 85
c
p cnf 20 85
6 10 -18 0
-11 -13 -18 0
-1 -6 -10 0
3 9 17 0
6 17 20 0
-4 -13 17 0
12 -13 -19 0
-4 -8 -14 0
-8 11 -15 0
3 8 -9 0
3 10 15 0
3 5 -13 0
-1 3 4 0
9 14 19 0
-5 -9 -16 0
8 10 -11 0
11 -14 16 0
8 17 -20 0
6 11 15 0
-13 -19 20 0
-4 -8 17 0
9 -10 -15 0
-3 -7 20 0
1 -3 11 0
-5 -6 16 0
-1 9 20 0
4 11 -20 0
-1 -4 14 0
2 -3 10 0
1 -7 -18 0
-2 6 20 0
2 -11 12 0
-4 13 -20 0
-6 -7 -14 0
-1 -7 -14 0
12 14 -16 0
2 14 19 0
1 -5 -17 0
-10 -12 -20 0
-3 -13 -19 0
6 -17 18 0
-8 -11 16 0
-7 -9 -10 0
14 -16 -18 0
-1 -8 -16 0
3 8 18 0
-12 -13 -15 0
-9 13 -15 0
8 11 -18 0
5 -7 11 0
-9 11 13 0
3 -10 20 0
3 5 7 0
-2 15 -16 0
-2 12 20 0
2 15 -16 0
3 10 13 0
-2 -12 19 0
11 18 19 0
1 18 -20 0
-6 -16 17 0
-4 6 13 0
-6 -9 16 0
-1 5 10 0
-4 -11 -14 0
-7 10 -18 0
-5 -14 18 0
7 10 -20 0
4 -7 -19 0
-3 -18 -19 0
-4 16 -18 0
-4 -9 -15 0
-3 11 -15 0
-5 9 14 0
-3 -5 14 0
-2 -15 -18 0
7 -10 20 0
-2 -3 -12 0
4 11 17 0
-9 -11 -19 0
7 -15 18 0
2 10 -15 0
1 3 -20 0
9 10 -12 0
2 12 -16 0
